;Example to motivate cvc5_abduct in the FMCAD student forum, part 2
(set-option :produce-abducts true)
(set-option :incremental true)
(set-logic QF_UFLIA)
(declare-fun f (Int Int ) Int)
(declare-fun x () Int)
(declare-fun y () Int)
(declare-fun z () Int)
(assert (= x (+ y 1)))
(get-abduct s (= (f y z) (f z (- x 1))))
(get-abduct-next)
(get-abduct-next)
(get-abduct-next)
(get-abduct-next)
